NAME : PR107C
TYPE : PDTSP
DIMENSION : 107
EDGE_WEIGHT_TYPE : EUC_2D
NODE_COORD_SECTION
1 8375 4700
2 8775 4700
3 8375 4900
4 8175 4900
5 8775 4900
6 8575 4900
7 8775 5400
8 8375 5450
9 8775 5600
10 8575 5600
11 8375 5650
12 8175 5650
13 8375 6200
14 8775 6200
15 8375 6400
16 8175 6400
17 8775 6400
18 8575 6400
19 8375 7000
20 8775 7000
21 8375 7200
22 8175 7200
23 8775 7200
24 8575 7200
25 8375 7800
26 8775 7800
27 8375 8000
28 8175 8000
29 8775 8000
30 8575 8000
31 8375 8700
32 8775 8700
33 8375 8900
34 8175 8900
35 8775 8900
36 8575 8900
37 8375 9600
38 8775 9600
39 8375 9800
40 8175 9800
41 8775 9800
42 8575 9800
43 8375 10500
44 8775 10450
45 8375 10700
46 8175 10700
47 8775 10650
48 8575 10650
49 8375 11300
50 8775 11300
51 8375 11500
52 8175 11500
53 8775 11500
54 8575 11500
55 15825 11500
56 15825 10700
57 15825 9800
58 15825 8900
59 15825 8000
60 15825 7200
61 15825 6400
62 15825 5650
63 15825 4900
64 16025 4700
65 16425 4700
66 16025 4900
67 16225 4900
68 16425 4900
69 16425 5400
70 16025 5450
71 16225 5600
72 16425 5600
73 16025 5650
74 16025 6200
75 16425 6200
76 16025 6400
77 16225 6400
78 16425 6400
79 16025 7000
80 16425 7000
81 16025 7200
82 16225 7200
83 16425 7200
84 16025 7800
85 16425 7800
86 16025 8000
87 16225 8000
88 16425 8000
89 16025 8700
90 16425 8700
91 16025 8900
92 16225 8900
93 16425 8900
94 16025 9600
95 16425 9600
96 16025 9800
97 16225 9800
98 16425 9800
99 16025 10500
100 16425 10450
101 16025 10700
102 16225 10650
103 16425 10650
104 16025 11300
105 16425 11300
106 16025 11500
107 16225 11500
PICKUP_AND_DELIVERY_SECTION
1 0 0 0 0 0 0
2 0 0 0 0 103 0
3 0 0 0 0 52 0
4 0 0 0 0 0 93
5 0 0 0 0 83 0
6 0 0 0 0 41 0
7 0 0 0 0 0 34
8 0 0 0 0 0 30
9 0 0 0 0 0 73
10 0 0 0 0 29 0
11 0 0 0 0 96 0
12 0 0 0 0 0 21
13 0 0 0 0 0 22
14 0 0 0 0 0 71
15 0 0 0 0 0 62
16 0 0 0 0 0 81
17 0 0 0 0 0 104
18 0 0 0 0 0 51
19 0 0 0 0 45 0
20 0 0 0 0 0 100
21 0 0 0 0 12 0
22 0 0 0 0 13 0
23 0 0 0 0 0 42
24 0 0 0 0 0 98
25 0 0 0 0 0 101
26 0 0 0 0 0 31
27 0 0 0 0 44 0
28 0 0 0 0 97 0
29 0 0 0 0 0 10
30 0 0 0 0 8 0
31 0 0 0 0 26 0
32 0 0 0 0 85 0
33 0 0 0 0 54 0
34 0 0 0 0 7 0
35 0 0 0 0 86 0
36 0 0 0 0 0 50
37 0 0 0 0 0 87
38 0 0 0 0 78 0
39 0 0 0 0 56 0
40 0 0 0 0 0 68
41 0 0 0 0 0 6
42 0 0 0 0 23 0
43 0 0 0 0 0 57
44 0 0 0 0 0 27
45 0 0 0 0 0 19
46 0 0 0 0 0 76
47 0 0 0 0 0 60
48 0 0 0 0 89 0
49 0 0 0 0 0 64
50 0 0 0 0 36 0
51 0 0 0 0 18 0
52 0 0 0 0 0 3
53 0 0 0 0 0 99
54 0 0 0 0 0 33
55 0 0 0 0 0 106
56 0 0 0 0 0 39
57 0 0 0 0 43 0
58 0 0 0 0 0 59
59 0 0 0 0 58 0
60 0 0 0 0 47 0
61 0 0 0 0 80 0
62 0 0 0 0 15 0
63 0 0 0 0 0 107
64 0 0 0 0 49 0
65 0 0 0 0 0 95
66 0 0 0 0 0 105
67 0 0 0 0 0 90
68 0 0 0 0 40 0
69 0 0 0 0 91 0
70 0 0 0 0 82 0
71 0 0 0 0 14 0
72 0 0 0 0 77 0
73 0 0 0 0 9 0
74 0 0 0 0 75 0
75 0 0 0 0 0 74
76 0 0 0 0 46 0
77 0 0 0 0 0 72
78 0 0 0 0 0 38
79 0 0 0 0 92 0
80 0 0 0 0 0 61
81 0 0 0 0 16 0
82 0 0 0 0 0 70
83 0 0 0 0 0 5
84 0 0 0 0 102 0
85 0 0 0 0 0 32
86 0 0 0 0 0 35
87 0 0 0 0 37 0
88 0 0 0 0 94 0
89 0 0 0 0 0 48
90 0 0 0 0 67 0
91 0 0 0 0 0 69
92 0 0 0 0 0 79
93 0 0 0 0 4 0
94 0 0 0 0 0 88
95 0 0 0 0 65 0
96 0 0 0 0 0 11
97 0 0 0 0 0 28
98 0 0 0 0 24 0
99 0 0 0 0 53 0
100 0 0 0 0 20 0
101 0 0 0 0 25 0
102 0 0 0 0 0 84
103 0 0 0 0 0 2
104 0 0 0 0 17 0
105 0 0 0 0 66 0
106 0 0 0 0 55 0
107 0 0 0 0 63 0
DEPOT_SECTION
1 
-1
EOF
